p cnf 660 1785
1 2 51 0
-1 2 -51 0
1 -2 -51 0
-1 -2 51 0
-3 5 52 0
3 5 -52 0
-3 -5 -52 0
3 -5 52 0
6 -8 53 0
-6 -8 -53 0
6 8 -53 0
-6 8 53 0
9 10 54 0
-9 10 -54 0
9 -10 -54 0
-9 -10 54 0
11 -13 55 0
-11 -13 -55 0
11 13 -55 0
-11 13 55 0
-14 -15 56 0
14 -15 -56 0
-14 15 -56 0
14 15 56 0
-16 17 57 0
16 17 -57 0
-16 -17 -57 0
16 -17 57 0
-19 20 58 0
19 20 -58 0
-19 -20 -58 0
19 -20 58 0
-22 24 59 0
22 24 -59 0
-22 -24 -59 0
22 -24 59 0
26 27 60 0
-26 27 -60 0
26 -27 -60 0
-26 -27 60 0
30 34 61 0
-30 34 -61 0
30 -34 -61 0
-30 -34 61 0
-35 37 62 0
35 37 -62 0
-35 -37 -62 0
35 -37 62 0
38 -41 63 0
-38 -41 -63 0
38 41 -63 0
-38 41 63 0
43 44 64 0
-43 44 -64 0
43 -44 -64 0
-43 -44 64 0
46 -48 65 0
-46 -48 -65 0
46 48 -65 0
-46 48 65 0
51 -52 66 0
-51 -52 -66 0
51 52 -66 0
-51 52 66 0
53 -54 67 0
-53 -54 -67 0
53 54 -67 0
-53 54 67 0
55 -56 68 0
-55 -56 -68 0
55 56 -68 0
-55 56 68 0
57 -58 69 0
-57 -58 -69 0
57 58 -69 0
-57 58 69 0
59 -60 70 0
-59 -60 -70 0
59 60 -70 0
-59 60 70 0
61 -62 71 0
-61 -62 -71 0
61 62 -71 0
-61 62 71 0
63 -64 72 0
-63 -64 -72 0
63 64 -72 0
-63 64 72 0
65 -66 73 0
-65 -66 -73 0
65 66 -73 0
-65 66 73 0
67 -68 74 0
-67 -68 -74 0
67 68 -74 0
-67 68 74 0
69 -70 75 0
-69 -70 -75 0
69 70 -75 0
-69 70 75 0
71 -72 76 0
-71 -72 -76 0
71 72 -76 0
-71 72 76 0
73 -74 77 0
-73 -74 -77 0
73 74 -77 0
-73 74 77 0
75 -76 78 0
-75 -76 -78 0
75 76 -78 0
-75 76 78 0
77 78 0
-77 -78 0
1 -2 79 0
-1 -2 -79 0
1 2 -79 0
-1 2 79 0
-6 7 80 0
6 7 -80 0
-6 -7 -80 0
6 -7 80 0
8 -10 81 0
-8 -10 -81 0
8 10 -81 0
-8 10 81 0
13 -14 82 0
-13 -14 -82 0
13 14 -82 0
-13 14 82 0
15 -17 83 0
-15 -17 -83 0
15 17 -83 0
-15 17 83 0
19 22 84 0
-19 22 -84 0
19 -22 -84 0
-19 -22 84 0
23 -25 85 0
-23 -25 -85 0
23 25 -85 0
-23 25 85 0
-26 -27 86 0
26 -27 -86 0
-26 27 -86 0
26 27 86 0
-29 31 87 0
29 31 -87 0
-29 -31 -87 0
29 -31 87 0
-32 33 88 0
32 33 -88 0
-32 -33 -88 0
32 -33 88 0
35 -36 89 0
-35 -36 -89 0
35 36 -89 0
-35 36 89 0
37 39 90 0
-37 39 -90 0
37 -39 -90 0
-37 -39 90 0
44 -45 91 0
-44 -45 -91 0
44 45 -91 0
-44 45 91 0
-48 -49 92 0
48 -49 -92 0
-48 49 -92 0
48 49 92 0
79 -80 93 0
-79 -80 -93 0
79 80 -93 0
-79 80 93 0
81 -82 94 0
-81 -82 -94 0
81 82 -94 0
-81 82 94 0
83 -84 95 0
-83 -84 -95 0
83 84 -95 0
-83 84 95 0
85 -86 96 0
-85 -86 -96 0
85 86 -96 0
-85 86 96 0
87 -88 97 0
-87 -88 -97 0
87 88 -97 0
-87 88 97 0
89 -90 98 0
-89 -90 -98 0
89 90 -98 0
-89 90 98 0
91 -92 99 0
-91 -92 -99 0
91 92 -99 0
-91 92 99 0
93 -94 100 0
-93 -94 -100 0
93 94 -100 0
-93 94 100 0
95 -96 101 0
-95 -96 -101 0
95 96 -101 0
-95 96 101 0
97 -98 102 0
-97 -98 -102 0
97 98 -102 0
-97 98 102 0
99 -100 103 0
-99 -100 -103 0
99 100 -103 0
-99 100 103 0
101 -102 104 0
-101 -102 -104 0
101 102 -104 0
-101 102 104 0
103 104 0
-103 -104 0
1 -2 105 0
-1 -2 -105 0
1 2 -105 0
-1 2 105 0
-5 7 106 0
5 7 -106 0
-5 -7 -106 0
5 -7 106 0
8 -10 107 0
-8 -10 -107 0
8 10 -107 0
-8 10 107 0
11 -12 108 0
-11 -12 -108 0
11 12 -108 0
-11 12 108 0
-18 19 109 0
18 19 -109 0
-18 -19 -109 0
18 -19 109 0
23 24 110 0
-23 24 -110 0
23 -24 -110 0
-23 -24 110 0
-27 28 111 0
27 28 -111 0
-27 -28 -111 0
27 -28 111 0
-31 33 112 0
31 33 -112 0
-31 -33 -112 0
31 -33 112 0
36 -37 113 0
-36 -37 -113 0
36 37 -113 0
-36 37 113 0
39 -41 114 0
-39 -41 -114 0
39 41 -114 0
-39 41 114 0
-45 48 115 0
45 48 -115 0
-45 -48 -115 0
45 -48 115 0
105 -106 116 0
-105 -106 -116 0
105 106 -116 0
-105 106 116 0
107 -108 117 0
-107 -108 -117 0
107 108 -117 0
-107 108 117 0
109 -110 118 0
-109 -110 -118 0
109 110 -118 0
-109 110 118 0
111 -112 119 0
-111 -112 -119 0
111 112 -119 0
-111 112 119 0
113 -114 120 0
-113 -114 -120 0
113 114 -120 0
-113 114 120 0
115 -116 121 0
-115 -116 -121 0
115 116 -121 0
-115 116 121 0
117 -118 122 0
-117 -118 -122 0
117 118 -122 0
-117 118 122 0
119 -120 123 0
-119 -120 -123 0
119 120 -123 0
-119 120 123 0
-121 -122 123 0
121 -122 -123 0
-121 122 -123 0
121 122 123 0
1 -2 124 0
-1 -2 -124 0
1 2 -124 0
-1 2 124 0
-6 -7 125 0
6 -7 -125 0
-6 7 -125 0
6 7 125 0
-8 -9 126 0
8 -9 -126 0
-8 9 -126 0
8 9 126 0
12 -13 127 0
-12 -13 -127 0
12 13 -127 0
-12 13 127 0
15 16 128 0
-15 16 -128 0
15 -16 -128 0
-15 -16 128 0
-17 20 129 0
17 20 -129 0
-17 -20 -129 0
17 -20 129 0
21 22 130 0
-21 22 -130 0
21 -22 -130 0
-21 -22 130 0
-23 24 131 0
23 24 -131 0
-23 -24 -131 0
23 -24 131 0
26 -29 132 0
-26 -29 -132 0
26 29 -132 0
-26 29 132 0
30 -31 133 0
-30 -31 -133 0
30 31 -133 0
-30 31 133 0
34 35 134 0
-34 35 -134 0
34 -35 -134 0
-34 -35 134 0
-36 -38 135 0
36 -38 -135 0
-36 38 -135 0
36 38 135 0
-39 42 136 0
39 42 -136 0
-39 -42 -136 0
39 -42 136 0
45 46 137 0
-45 46 -137 0
45 -46 -137 0
-45 -46 137 0
47 48 138 0
-47 48 -138 0
47 -48 -138 0
-47 -48 138 0
124 -125 139 0
-124 -125 -139 0
124 125 -139 0
-124 125 139 0
126 -127 140 0
-126 -127 -140 0
126 127 -140 0
-126 127 140 0
128 -129 141 0
-128 -129 -141 0
128 129 -141 0
-128 129 141 0
130 -131 142 0
-130 -131 -142 0
130 131 -142 0
-130 131 142 0
132 -133 143 0
-132 -133 -143 0
132 133 -143 0
-132 133 143 0
134 -135 144 0
-134 -135 -144 0
134 135 -144 0
-134 135 144 0
136 -137 145 0
-136 -137 -145 0
136 137 -145 0
-136 137 145 0
138 -139 146 0
-138 -139 -146 0
138 139 -146 0
-138 139 146 0
140 -141 147 0
-140 -141 -147 0
140 141 -147 0
-140 141 147 0
142 -143 148 0
-142 -143 -148 0
142 143 -148 0
-142 143 148 0
144 -145 149 0
-144 -145 -149 0
144 145 -149 0
-144 145 149 0
146 -147 150 0
-146 -147 -150 0
146 147 -150 0
-146 147 150 0
148 -149 151 0
-148 -149 -151 0
148 149 -151 0
-148 149 151 0
150 151 0
-150 -151 0
-4 -8 152 0
4 -8 -152 0
-4 8 -152 0
4 8 152 0
10 12 153 0
-10 12 -153 0
10 -12 -153 0
-10 -12 153 0
13 -14 154 0
-13 -14 -154 0
13 14 -154 0
-13 14 154 0
16 20 155 0
-16 20 -155 0
16 -20 -155 0
-16 -20 155 0
-21 -22 156 0
21 -22 -156 0
-21 22 -156 0
21 22 156 0
23 -26 157 0
-23 -26 -157 0
23 26 -157 0
-23 26 157 0
27 28 158 0
-27 28 -158 0
27 -28 -158 0
-27 -28 158 0
-30 -31 159 0
30 -31 -159 0
-30 31 -159 0
30 31 159 0
-37 -39 160 0
37 -39 -160 0
-37 39 -160 0
37 39 160 0
-44 45 161 0
44 45 -161 0
-44 -45 -161 0
44 -45 161 0
-46 -50 162 0
46 -50 -162 0
-46 50 -162 0
46 50 162 0
152 -153 163 0
-152 -153 -163 0
152 153 -163 0
-152 153 163 0
154 -155 164 0
-154 -155 -164 0
154 155 -164 0
-154 155 164 0
156 -157 165 0
-156 -157 -165 0
156 157 -165 0
-156 157 165 0
158 -159 166 0
-158 -159 -166 0
158 159 -166 0
-158 159 166 0
160 -161 167 0
-160 -161 -167 0
160 161 -167 0
-160 161 167 0
162 -163 168 0
-162 -163 -168 0
162 163 -168 0
-162 163 168 0
164 -165 169 0
-164 -165 -169 0
164 165 -169 0
-164 165 169 0
166 -167 170 0
-166 -167 -170 0
166 167 -170 0
-166 167 170 0
-168 -169 170 0
168 -169 -170 0
-168 169 -170 0
168 169 170 0
3 5 171 0
-3 5 -171 0
3 -5 -171 0
-3 -5 171 0
6 -11 172 0
-6 -11 -172 0
6 11 -172 0
-6 11 172 0
15 16 173 0
-15 16 -173 0
15 -16 -173 0
-15 -16 173 0
-19 -20 174 0
19 -20 -174 0
-19 20 -174 0
19 20 174 0
-21 23 175 0
21 23 -175 0
-21 -23 -175 0
21 -23 175 0
27 29 176 0
-27 29 -176 0
27 -29 -176 0
-27 -29 176 0
-31 32 177 0
31 32 -177 0
-31 -32 -177 0
31 -32 177 0
-35 -36 178 0
35 -36 -178 0
-35 36 -178 0
35 36 178 0
-37 38 179 0
37 38 -179 0
-37 -38 -179 0
37 -38 179 0
43 -44 180 0
-43 -44 -180 0
43 44 -180 0
-43 44 180 0
-45 -49 181 0
45 -49 -181 0
-45 49 -181 0
45 49 181 0
170 -171 182 0
-170 -171 -182 0
170 171 -182 0
-170 171 182 0
172 -173 183 0
-172 -173 -183 0
172 173 -183 0
-172 173 183 0
174 -175 184 0
-174 -175 -184 0
174 175 -184 0
-174 175 184 0
176 -177 185 0
-176 -177 -185 0
176 177 -185 0
-176 177 185 0
178 -179 186 0
-178 -179 -186 0
178 179 -186 0
-178 179 186 0
180 -181 187 0
-180 -181 -187 0
180 181 -187 0
-180 181 187 0
182 -183 188 0
-182 -183 -188 0
182 183 -188 0
-182 183 188 0
184 -185 189 0
-184 -185 -189 0
184 185 -189 0
-184 185 189 0
186 -187 190 0
-186 -187 -190 0
186 187 -190 0
-186 187 190 0
-188 -189 190 0
188 -189 -190 0
-188 189 -190 0
188 189 190 0
-1 2 191 0
1 2 -191 0
-1 -2 -191 0
1 -2 191 0
-4 5 192 0
4 5 -192 0
-4 -5 -192 0
4 -5 192 0
-7 10 193 0
7 10 -193 0
-7 -10 -193 0
7 -10 193 0
12 -13 194 0
-12 -13 -194 0
12 13 -194 0
-12 13 194 0
19 -24 195 0
-19 -24 -195 0
19 24 -195 0
-19 24 195 0
26 -27 196 0
-26 -27 -196 0
26 27 -196 0
-26 27 196 0
28 31 197 0
-28 31 -197 0
28 -31 -197 0
-28 -31 197 0
-33 -34 198 0
33 -34 -198 0
-33 34 -198 0
33 34 198 0
35 -37 199 0
-35 -37 -199 0
35 37 -199 0
-35 37 199 0
38 -39 200 0
-38 -39 -200 0
38 39 -200 0
-38 39 200 0
-43 44 201 0
43 44 -201 0
-43 -44 -201 0
43 -44 201 0
46 -48 202 0
-46 -48 -202 0
46 48 -202 0
-46 48 202 0
49 -50 203 0
-49 -50 -203 0
49 50 -203 0
-49 50 203 0
191 -192 204 0
-191 -192 -204 0
191 192 -204 0
-191 192 204 0
193 -194 205 0
-193 -194 -205 0
193 194 -205 0
-193 194 205 0
195 -196 206 0
-195 -196 -206 0
195 196 -206 0
-195 196 206 0
197 -198 207 0
-197 -198 -207 0
197 198 -207 0
-197 198 207 0
199 -200 208 0
-199 -200 -208 0
199 200 -208 0
-199 200 208 0
201 -202 209 0
-201 -202 -209 0
201 202 -209 0
-201 202 209 0
203 -204 210 0
-203 -204 -210 0
203 204 -210 0
-203 204 210 0
205 -206 211 0
-205 -206 -211 0
205 206 -211 0
-205 206 211 0
207 -208 212 0
-207 -208 -212 0
207 208 -212 0
-207 208 212 0
209 -210 213 0
-209 -210 -213 0
209 210 -213 0
-209 210 213 0
211 -212 214 0
-211 -212 -214 0
211 212 -214 0
-211 212 214 0
213 214 0
-213 -214 0
1 -4 215 0
-1 -4 -215 0
1 4 -215 0
-1 4 215 0
-5 -8 216 0
5 -8 -216 0
-5 8 -216 0
5 8 216 0
-9 -11 217 0
9 -11 -217 0
-9 11 -217 0
9 11 217 0
-12 13 218 0
12 13 -218 0
-12 -13 -218 0
12 -13 218 0
14 -15 219 0
-14 -15 -219 0
14 15 -219 0
-14 15 219 0
-16 18 220 0
16 18 -220 0
-16 -18 -220 0
16 -18 220 0
-20 21 221 0
20 21 -221 0
-20 -21 -221 0
20 -21 221 0
-22 -23 222 0
22 -23 -222 0
-22 23 -222 0
22 23 222 0
25 26 223 0
-25 26 -223 0
25 -26 -223 0
-25 -26 223 0
27 -34 224 0
-27 -34 -224 0
27 34 -224 0
-27 34 224 0
35 36 225 0
-35 36 -225 0
35 -36 -225 0
-35 -36 225 0
40 41 226 0
-40 41 -226 0
40 -41 -226 0
-40 -41 226 0
-48 -49 227 0
48 -49 -227 0
-48 49 -227 0
48 49 227 0
214 -215 228 0
-214 -215 -228 0
214 215 -228 0
-214 215 228 0
216 -217 229 0
-216 -217 -229 0
216 217 -229 0
-216 217 229 0
218 -219 230 0
-218 -219 -230 0
218 219 -230 0
-218 219 230 0
220 -221 231 0
-220 -221 -231 0
220 221 -231 0
-220 221 231 0
222 -223 232 0
-222 -223 -232 0
222 223 -232 0
-222 223 232 0
224 -225 233 0
-224 -225 -233 0
224 225 -233 0
-224 225 233 0
226 -227 234 0
-226 -227 -234 0
226 227 -234 0
-226 227 234 0
228 -229 235 0
-228 -229 -235 0
228 229 -235 0
-228 229 235 0
230 -231 236 0
-230 -231 -236 0
230 231 -236 0
-230 231 236 0
232 -233 237 0
-232 -233 -237 0
232 233 -237 0
-232 233 237 0
234 -235 238 0
-234 -235 -238 0
234 235 -238 0
-234 235 238 0
236 -237 239 0
-236 -237 -239 0
236 237 -239 0
-236 237 239 0
238 239 0
-238 -239 0
-2 4 240 0
2 4 -240 0
-2 -4 -240 0
2 -4 240 0
5 -6 241 0
-5 -6 -241 0
5 6 -241 0
-5 6 241 0
-7 13 242 0
7 13 -242 0
-7 -13 -242 0
7 -13 242 0
-18 -19 243 0
18 -19 -243 0
-18 19 -243 0
18 19 243 0
20 22 244 0
-20 22 -244 0
20 -22 -244 0
-20 -22 244 0
23 -26 245 0
-23 -26 -245 0
23 26 -245 0
-23 26 245 0
-28 29 246 0
28 29 -246 0
-28 -29 -246 0
28 -29 246 0
-31 -32 247 0
31 -32 -247 0
-31 32 -247 0
31 32 247 0
33 -35 248 0
-33 -35 -248 0
33 35 -248 0
-33 35 248 0
-37 -41 249 0
37 -41 -249 0
-37 41 -249 0
37 41 249 0
42 -44 250 0
-42 -44 -250 0
42 44 -250 0
-42 44 250 0
45 46 251 0
-45 46 -251 0
45 -46 -251 0
-45 -46 251 0
-48 50 252 0
48 50 -252 0
-48 -50 -252 0
48 -50 252 0
240 -241 253 0
-240 -241 -253 0
240 241 -253 0
-240 241 253 0
242 -243 254 0
-242 -243 -254 0
242 243 -254 0
-242 243 254 0
244 -245 255 0
-244 -245 -255 0
244 245 -255 0
-244 245 255 0
246 -247 256 0
-246 -247 -256 0
246 247 -256 0
-246 247 256 0
248 -249 257 0
-248 -249 -257 0
248 249 -257 0
-248 249 257 0
250 -251 258 0
-250 -251 -258 0
250 251 -258 0
-250 251 258 0
252 -253 259 0
-252 -253 -259 0
252 253 -259 0
-252 253 259 0
254 -255 260 0
-254 -255 -260 0
254 255 -260 0
-254 255 260 0
256 -257 261 0
-256 -257 -261 0
256 257 -261 0
-256 257 261 0
258 -259 262 0
-258 -259 -262 0
258 259 -262 0
-258 259 262 0
260 -261 263 0
-260 -261 -263 0
260 261 -263 0
-260 261 263 0
262 263 0
-262 -263 0
-1 -5 264 0
1 -5 -264 0
-1 5 -264 0
1 5 264 0
7 8 265 0
-7 8 -265 0
7 -8 -265 0
-7 -8 265 0
9 -15 266 0
-9 -15 -266 0
9 15 -266 0
-9 15 266 0
18 21 267 0
-18 21 -267 0
18 -21 -267 0
-18 -21 267 0
22 26 268 0
-22 26 -268 0
22 -26 -268 0
-22 -26 268 0
27 -29 269 0
-27 -29 -269 0
27 29 -269 0
-27 29 269 0
31 33 270 0
-31 33 -270 0
31 -33 -270 0
-31 -33 270 0
-35 -36 271 0
35 -36 -271 0
-35 36 -271 0
35 36 271 0
-39 41 272 0
39 41 -272 0
-39 -41 -272 0
39 -41 272 0
-42 -50 273 0
42 -50 -273 0
-42 50 -273 0
42 50 273 0
264 -265 274 0
-264 -265 -274 0
264 265 -274 0
-264 265 274 0
266 -267 275 0
-266 -267 -275 0
266 267 -275 0
-266 267 275 0
268 -269 276 0
-268 -269 -276 0
268 269 -276 0
-268 269 276 0
270 -271 277 0
-270 -271 -277 0
270 271 -277 0
-270 271 277 0
272 -273 278 0
-272 -273 -278 0
272 273 -278 0
-272 273 278 0
274 -275 279 0
-274 -275 -279 0
274 275 -279 0
-274 275 279 0
276 -277 280 0
-276 -277 -280 0
276 277 -280 0
-276 277 280 0
-278 -279 280 0
278 -279 -280 0
-278 279 -280 0
278 279 280 0
-12 281 0
-24 281 0
-12 -24 282 0
-23 281 0
-12 -23 282 0
-24 -23 282 0
-12 -24 -23 283 0
-22 284 0
-21 284 0
-22 -21 285 0
-20 284 0
-22 -20 285 0
-21 -20 285 0
-22 -21 -20 286 0
-281 287 0
-282 288 0
-283 289 0
-284 287 0
-285 288 0
-286 289 0
-281 -284 288 0
-281 -285 289 0
-281 -286 290 0
-282 -284 289 0
-282 -285 290 0
-282 -286 291 0
-283 -284 290 0
-283 -285 291 0
-283 -286 292 0
-19 293 0
-18 293 0
-19 -18 294 0
-17 293 0
-19 -17 294 0
-18 -17 294 0
-19 -18 -17 295 0
-16 296 0
-15 296 0
-16 -15 297 0
-14 296 0
-16 -14 297 0
-15 -14 297 0
-16 -15 -14 298 0
-293 299 0
-294 300 0
-295 301 0
-296 299 0
-297 300 0
-298 301 0
-293 -296 300 0
-293 -297 301 0
-293 -298 302 0
-294 -296 301 0
-294 -297 302 0
-294 -298 303 0
-295 -296 302 0
-295 -297 303 0
-295 -298 304 0
-287 305 0
-289 306 0
-291 307 0
-299 305 0
-301 306 0
-303 307 0
-287 -299 306 0
-287 -301 307 0
-287 -303 308 0
-289 -299 307 0
-289 -301 308 0
-289 -303 309 0
-291 -299 308 0
-291 -301 309 0
-291 -303 310 0
-288 311 0
-290 312 0
-292 313 0
-300 311 0
-302 312 0
-304 313 0
-288 -300 312 0
-288 -302 313 0
-288 -304 314 0
-290 -300 313 0
-290 -302 314 0
-290 -304 315 0
-292 -300 314 0
-292 -302 315 0
-292 -304 316 0
-306 317 0
-311 317 0
-306 -311 318 0
-307 319 0
-312 319 0
-307 -312 320 0
-308 321 0
-313 321 0
-308 -313 322 0
-309 323 0
-314 323 0
-309 -314 324 0
-310 325 0
-315 325 0
-310 -315 326 0
-13 327 0
-25 327 0
-13 -25 328 0
-11 327 0
-13 -11 328 0
-25 -11 328 0
-13 -25 -11 329 0
-10 330 0
-9 330 0
-10 -9 331 0
-8 330 0
-10 -8 331 0
-9 -8 331 0
-10 -9 -8 332 0
-327 333 0
-328 334 0
-329 335 0
-330 333 0
-331 334 0
-332 335 0
-327 -330 334 0
-327 -331 335 0
-327 -332 336 0
-328 -330 335 0
-328 -331 336 0
-328 -332 337 0
-329 -330 336 0
-329 -331 337 0
-329 -332 338 0
-7 339 0
-6 339 0
-7 -6 340 0
-5 339 0
-7 -5 340 0
-6 -5 340 0
-7 -6 -5 341 0
-4 342 0
-3 342 0
-4 -3 343 0
-2 342 0
-4 -2 343 0
-3 -2 343 0
-4 -3 -2 344 0
-339 345 0
-340 346 0
-341 347 0
-342 345 0
-343 346 0
-344 347 0
-339 -342 346 0
-339 -343 347 0
-339 -344 348 0
-340 -342 347 0
-340 -343 348 0
-340 -344 349 0
-341 -342 348 0
-341 -343 349 0
-341 -344 350 0
-333 351 0
-335 352 0
-337 353 0
-345 351 0
-347 352 0
-349 353 0
-333 -345 352 0
-333 -347 353 0
-333 -349 354 0
-335 -345 353 0
-335 -347 354 0
-335 -349 355 0
-337 -345 354 0
-337 -347 355 0
-337 -349 356 0
-334 357 0
-336 358 0
-338 359 0
-346 357 0
-348 358 0
-350 359 0
-334 -346 358 0
-334 -348 359 0
-334 -350 360 0
-336 -346 359 0
-336 -348 360 0
-336 -350 361 0
-338 -346 360 0
-338 -348 361 0
-338 -350 362 0
-352 363 0
-357 363 0
-352 -357 364 0
-353 365 0
-358 365 0
-353 -358 366 0
-354 367 0
-359 367 0
-354 -359 368 0
-355 369 0
-360 369 0
-355 -360 370 0
-356 371 0
-361 371 0
-356 -361 372 0
-1 373 0
-37 373 0
-1 -37 374 0
-49 373 0
-1 -49 374 0
-37 -49 374 0
-1 -37 -49 375 0
-48 376 0
-47 376 0
-48 -47 377 0
-46 376 0
-48 -46 377 0
-47 -46 377 0
-48 -47 -46 378 0
-373 379 0
-374 380 0
-375 381 0
-376 379 0
-377 380 0
-378 381 0
-373 -376 380 0
-373 -377 381 0
-373 -378 382 0
-374 -376 381 0
-374 -377 382 0
-374 -378 383 0
-375 -376 382 0
-375 -377 383 0
-375 -378 384 0
-45 385 0
-44 385 0
-45 -44 386 0
-43 385 0
-45 -43 386 0
-44 -43 386 0
-45 -44 -43 387 0
-42 388 0
-41 388 0
-42 -41 389 0
-40 388 0
-42 -40 389 0
-41 -40 389 0
-42 -41 -40 390 0
-385 391 0
-386 392 0
-387 393 0
-388 391 0
-389 392 0
-390 393 0
-385 -388 392 0
-385 -389 393 0
-385 -390 394 0
-386 -388 393 0
-386 -389 394 0
-386 -390 395 0
-387 -388 394 0
-387 -389 395 0
-387 -390 396 0
-379 397 0
-381 398 0
-383 399 0
-391 397 0
-393 398 0
-395 399 0
-379 -391 398 0
-379 -393 399 0
-379 -395 400 0
-381 -391 399 0
-381 -393 400 0
-381 -395 401 0
-383 -391 400 0
-383 -393 401 0
-383 -395 402 0
-380 403 0
-382 404 0
-384 405 0
-392 403 0
-394 404 0
-396 405 0
-380 -392 404 0
-380 -394 405 0
-380 -396 406 0
-382 -392 405 0
-382 -394 406 0
-382 -396 407 0
-384 -392 406 0
-384 -394 407 0
-384 -396 408 0
-398 409 0
-403 409 0
-398 -403 410 0
-399 411 0
-404 411 0
-399 -404 412 0
-400 413 0
-405 413 0
-400 -405 414 0
-401 415 0
-406 415 0
-401 -406 416 0
-402 417 0
-407 417 0
-402 -407 418 0
-39 419 0
-38 419 0
-39 -38 420 0
-50 419 0
-39 -50 420 0
-38 -50 420 0
-39 -38 -50 421 0
-36 422 0
-35 422 0
-36 -35 423 0
-34 422 0
-36 -34 423 0
-35 -34 423 0
-36 -35 -34 424 0
-419 425 0
-420 426 0
-421 427 0
-422 425 0
-423 426 0
-424 427 0
-419 -422 426 0
-419 -423 427 0
-419 -424 428 0
-420 -422 427 0
-420 -423 428 0
-420 -424 429 0
-421 -422 428 0
-421 -423 429 0
-421 -424 430 0
-33 431 0
-32 431 0
-33 -32 432 0
-31 431 0
-33 -31 432 0
-32 -31 432 0
-33 -32 -31 433 0
-30 434 0
-29 434 0
-30 -29 435 0
-28 436 0
-27 436 0
-28 -27 437 0
-26 436 0
-28 -26 437 0
-27 -26 437 0
-28 -27 -26 438 0
-434 439 0
-435 440 0
-436 439 0
-437 440 0
-438 441 0
-434 -436 440 0
-434 -437 441 0
-434 -438 442 0
-435 -436 441 0
-435 -437 442 0
-435 -438 443 0
-431 444 0
-432 445 0
-433 446 0
-439 444 0
-440 445 0
-441 446 0
-442 447 0
-443 448 0
-431 -439 445 0
-431 -440 446 0
-431 -441 447 0
-431 -442 448 0
-431 -443 449 0
-432 -439 446 0
-432 -440 447 0
-432 -441 448 0
-432 -442 449 0
-432 -443 450 0
-433 -439 447 0
-433 -440 448 0
-433 -441 449 0
-433 -442 450 0
-433 -443 451 0
-425 452 0
-427 453 0
-429 454 0
-444 452 0
-446 453 0
-448 454 0
-450 455 0
-425 -444 453 0
-425 -446 454 0
-425 -448 455 0
-425 -450 456 0
-427 -444 454 0
-427 -446 455 0
-427 -448 456 0
-427 -450 457 0
-429 -444 455 0
-429 -446 456 0
-429 -448 457 0
-429 -450 458 0
-426 459 0
-428 460 0
-430 461 0
-445 459 0
-447 460 0
-449 461 0
-451 462 0
-426 -445 460 0
-426 -447 461 0
-426 -449 462 0
-426 -451 463 0
-428 -445 461 0
-428 -447 462 0
-428 -449 463 0
-428 -451 464 0
-430 -445 462 0
-430 -447 463 0
-430 -449 464 0
-430 -451 465 0
-453 466 0
-459 466 0
-453 -459 467 0
-454 468 0
-460 468 0
-454 -460 469 0
-455 470 0
-461 470 0
-455 -461 471 0
-456 472 0
-462 472 0
-456 -462 473 0
-457 474 0
-463 474 0
-457 -463 475 0
-458 476 0
-464 476 0
-458 -464 477 0
-397 478 0
-412 479 0
-416 480 0
-452 478 0
-469 479 0
-473 480 0
-477 481 0
-397 -452 479 0
-397 -469 480 0
-397 -473 481 0
-397 -477 482 0
-412 -452 480 0
-412 -469 481 0
-412 -473 482 0
-412 -477 483 0
-416 -452 481 0
-416 -469 482 0
-416 -473 483 0
-410 484 0
-414 485 0
-418 486 0
-467 484 0
-471 485 0
-475 486 0
-410 -467 485 0
-410 -471 486 0
-410 -475 487 0
-414 -467 486 0
-414 -471 487 0
-414 -475 488 0
-418 -467 487 0
-418 -471 488 0
-479 489 0
-484 489 0
-479 -484 490 0
-480 491 0
-485 491 0
-480 -485 492 0
-481 493 0
-486 493 0
-481 -486 494 0
-482 495 0
-487 495 0
-482 -487 496 0
-483 497 0
-488 497 0
-483 -488 498 0
-409 499 0
-413 500 0
-417 501 0
-466 499 0
-470 500 0
-474 501 0
-465 502 0
-409 -466 500 0
-409 -470 501 0
-409 -474 502 0
-409 -465 503 0
-413 -466 501 0
-413 -470 502 0
-413 -474 503 0
-413 -465 504 0
-417 -466 502 0
-417 -470 503 0
-417 -474 504 0
-411 505 0
-415 506 0
-408 507 0
-468 505 0
-472 506 0
-476 507 0
-411 -468 506 0
-411 -472 507 0
-411 -476 508 0
-415 -468 507 0
-415 -472 508 0
-415 -476 509 0
-408 -468 508 0
-408 -472 509 0
-500 510 0
-505 510 0
-500 -505 511 0
-501 512 0
-506 512 0
-501 -506 513 0
-502 514 0
-507 514 0
-502 -507 515 0
-503 516 0
-508 516 0
-503 -508 517 0
-504 518 0
-509 518 0
-489 519 0
-499 519 0
-489 -499 520 0
-490 521 0
-510 521 0
-490 -510 522 0
-491 523 0
-511 523 0
-491 -511 524 0
-492 525 0
-512 525 0
-492 -512 526 0
-493 527 0
-513 527 0
-493 -513 528 0
-494 529 0
-514 529 0
-494 -514 530 0
-495 531 0
-515 531 0
-495 -515 532 0
-496 533 0
-516 533 0
-496 -516 534 0
-497 535 0
-517 535 0
-497 -517 536 0
-498 537 0
-518 537 0
-498 -518 538 0
-351 539 0
-366 540 0
-370 541 0
-478 539 0
-522 540 0
-526 541 0
-530 542 0
-534 543 0
-538 544 0
-351 -478 540 0
-351 -522 541 0
-351 -526 542 0
-351 -530 543 0
-351 -534 544 0
-366 -478 541 0
-366 -522 542 0
-366 -526 543 0
-366 -530 544 0
-370 -478 542 0
-370 -522 543 0
-370 -526 544 0
-364 545 0
-368 546 0
-372 547 0
-520 545 0
-524 546 0
-528 547 0
-532 548 0
-536 549 0
-364 -520 546 0
-364 -524 547 0
-364 -528 548 0
-364 -532 549 0
-368 -520 547 0
-368 -524 548 0
-368 -528 549 0
-372 -520 548 0
-372 -524 549 0
-540 550 0
-545 550 0
-540 -545 551 0
-541 552 0
-546 552 0
-541 -546 553 0
-542 554 0
-547 554 0
-542 -547 555 0
-543 556 0
-548 556 0
-543 -548 557 0
-544 558 0
-549 558 0
-544 -549 559 0
-363 560 0
-367 561 0
-371 562 0
-519 560 0
-523 561 0
-527 562 0
-531 563 0
-535 564 0
-363 -519 561 0
-363 -523 562 0
-363 -527 563 0
-363 -531 564 0
-363 -535 565 0
-367 -519 562 0
-367 -523 563 0
-367 -527 564 0
-367 -531 565 0
-371 -519 563 0
-371 -523 564 0
-371 -527 565 0
-365 566 0
-369 567 0
-362 568 0
-521 566 0
-525 567 0
-529 568 0
-533 569 0
-537 570 0
-365 -521 567 0
-365 -525 568 0
-365 -529 569 0
-365 -533 570 0
-369 -521 568 0
-369 -525 569 0
-369 -529 570 0
-362 -521 569 0
-362 -525 570 0
-561 571 0
-566 571 0
-561 -566 572 0
-562 573 0
-567 573 0
-562 -567 574 0
-563 575 0
-568 575 0
-563 -568 576 0
-564 577 0
-569 577 0
-564 -569 578 0
-565 579 0
-570 579 0
-550 580 0
-560 580 0
-550 -560 581 0
-551 582 0
-571 582 0
-551 -571 583 0
-552 584 0
-572 584 0
-552 -572 585 0
-553 586 0
-573 586 0
-553 -573 587 0
-554 588 0
-574 588 0
-554 -574 589 0
-555 590 0
-575 590 0
-555 -575 591 0
-556 592 0
-576 592 0
-556 -576 593 0
-557 594 0
-577 594 0
-557 -577 595 0
-558 596 0
-578 596 0
-558 -578 597 0
-559 598 0
-579 598 0
-559 -579 599 0
-305 600 0
-320 601 0
-324 602 0
-539 600 0
-583 601 0
-587 602 0
-591 603 0
-595 604 0
-599 605 0
-305 -539 601 0
-305 -583 602 0
-305 -587 603 0
-305 -591 604 0
-305 -595 605 0
-320 -539 602 0
-320 -583 603 0
-320 -587 604 0
-320 -591 605 0
-324 -539 603 0
-324 -583 604 0
-324 -587 605 0
-318 606 0
-322 607 0
-326 608 0
-581 606 0
-585 607 0
-589 608 0
-593 609 0
-597 610 0
-318 -581 607 0
-318 -585 608 0
-318 -589 609 0
-318 -593 610 0
-322 -581 608 0
-322 -585 609 0
-322 -589 610 0
-326 -581 609 0
-326 -585 610 0
-601 611 0
-606 611 0
-601 -606 612 0
-602 613 0
-607 613 0
-602 -607 614 0
-603 615 0
-608 615 0
-603 -608 616 0
-604 617 0
-609 617 0
-604 -609 618 0
-605 619 0
-610 619 0
-605 -610 620 0
-317 621 0
-321 622 0
-325 623 0
-580 621 0
-584 622 0
-588 623 0
-592 624 0
-596 625 0
-317 -580 622 0
-317 -584 623 0
-317 -588 624 0
-317 -592 625 0
-317 -596 626 0
-321 -580 623 0
-321 -584 624 0
-321 -588 625 0
-321 -592 626 0
-325 -580 624 0
-325 -584 625 0
-325 -588 626 0
-319 627 0
-323 628 0
-316 629 0
-582 627 0
-586 628 0
-590 629 0
-594 630 0
-598 631 0
-319 -582 628 0
-319 -586 629 0
-319 -590 630 0
-319 -594 631 0
-323 -582 629 0
-323 -586 630 0
-323 -590 631 0
-316 -582 630 0
-316 -586 631 0
-622 632 0
-627 632 0
-622 -627 633 0
-623 634 0
-628 634 0
-623 -628 635 0
-624 636 0
-629 636 0
-624 -629 637 0
-625 638 0
-630 638 0
-625 -630 639 0
-626 640 0
-631 640 0
-611 641 0
-621 641 0
-611 -621 642 0
-612 643 0
-632 643 0
-612 -632 644 0
-613 645 0
-633 645 0
-613 -633 646 0
-614 647 0
-634 647 0
-614 -634 648 0
-615 649 0
-635 649 0
-615 -635 650 0
-616 651 0
-636 651 0
-616 -636 652 0
-617 653 0
-637 653 0
-617 -637 654 0
-618 655 0
-638 655 0
-618 -638 656 0
-619 657 0
-639 657 0
-619 -639 658 0
-620 659 0
-640 659 0
-620 -640 660 0
-660 0
